N = 14;
H = 6;
T = 2;

avail = array3d(1..N, 1..H, 1..T, [5, 1, 7, 3, 3, 1, 7, 9, 2, 6, 6, 2, 0, 1, 9, 2, 7, 2, 4, 5, 0, 7, 3, 4, 9, 0, 5, 0, 2, 5, 5, 10, 9, 8, 1, 6, 5, 8, 8, 5, 8, 4, 8, 3, 8, 4, 4, 10, 10, 2, 3, 5, 8, 2, 0, 4, 0, 7, 4, 4, 7, 6, 1, 5, 9, 7, 6, 5, 7, 0, 6, 6, 5, 0, 8, 6, 3, 4, 1, 5, 6, 5, 1, 2, 4, 5, 6, 4, 2, 2, 0, 7, 8, 4, 3, 8, 9, 1, 4, 2, 3, 8, 9, 9, 1, 0, 3, 5, 2, 3, 1, 0, 1, 9, 5, 3, 3, 6, 8, 9, 2, 1, 9, 8, 9, 2, 8, 3, 4, 2, 0, 8, 2, 5, 3, 5, 10, 9, 1, 2, 5, 2, 8, 5, 3, 2, 9, 7, 0, 6, 2, 3, 6, 10, 7, 10, 9, 3, 7, 8, 1, 2, 5, 4, 8, 1, 1, 5]);

r = array2d(1..H, 1..T, [5, 6, 2, 6, 6, 4, 2, 2, 5, 7, 1, 4]);
